Optimal - objective value 161.00000000
      0 C                       161                       0
      1 x_0_0                    10                       0
      2 x_0_1                    18                       0
      3 x_0_2                    26                       0
      4 x_0_3                    36                       0
      5 x_0_4                   125                       0
      6 x_0_5                   134                       0
      7 x_0_6                   137                       0
      8 x_1_0                    26                       0
      9 x_1_1                    92                       0
     10 x_1_2                   113                       0
     11 x_1_3                   118                       0
     12 x_1_4                   133                       0
     13 x_1_5                   140                       0
     14 x_1_6                   156                       0
     15 x_2_0                     2                       0
     16 x_2_1                     9                       0
     17 x_2_2                    14                       0
     18 x_2_3                   106                       0
     19 x_2_4                   115                       0
     20 x_2_5                   125                       0
     21 x_2_6                   160                       0
     23 x_3_1                    10                       0
     24 x_3_2                    14                       0
     25 x_3_3                    24                       0
     26 x_3_4                    26                       0
     27 x_3_5                   118                       0
     28 x_3_6                   159                       0
     30 x_4_1                     1                       0
     31 x_4_2                     2                       0
     32 x_4_3                    13                       0
     33 x_4_4                    21                       0
     34 x_4_5                    22                       0
     35 x_4_6                    79                       0
     36 x_5_0                    14                       0
     37 x_5_1                    36                       0
     38 x_5_2                    95                       0
     39 x_5_3                    98                       0
     40 x_5_4                   140                       0
     41 x_5_5                   149                       0
     42 x_5_6                   159                       0
     44 x_6_1                    12                       0
     45 x_6_2                    24                       0
     46 x_6_3                    30                       0
     47 x_6_4                    76                       0
     48 x_6_5                    97                       0
     49 x_6_6                   158                       0
     50 x_7_0                     9                       0
     51 x_7_1                    14                       0
     52 x_7_2                    15                       0
     53 x_7_3                    21                       0
     54 x_7_4                    26                       0
     55 x_7_5                    81                       0
     56 x_7_6                    87                       0
     57 x_8_0                    55                       0
     58 x_8_1                    76                       0
     59 x_8_2                    83                       0
     60 x_8_3                    87                       0
     61 x_8_4                    92                       0
     62 x_8_5                    95                       0
     63 x_8_6                   120                       0
     65 y_0_1_1                   1                       0
     69 y_0_1_5                   1                       0
     72 y_0_2_1                   1                       0
     74 y_0_2_3                   1                       0
     75 y_0_2_4                   1                       0
     76 y_0_2_5                   1                       0
     77 y_0_2_6                   1                       0
     78 y_0_3_0                   1                       0
     79 y_0_3_1                   1                       0
     81 y_0_3_3                   1                       0
     82 y_0_3_4                   1                       0
     83 y_0_3_5                   1                       0
     86 y_0_4_1                   1                       0
     87 y_0_4_2                   1                       0
     89 y_0_4_4                   1                       0
     90 y_0_4_5                   1                       0
     91 y_0_4_6                   1                       0
     96 y_0_5_4                   1                       0
     97 y_0_5_5                   1                       0
     98 y_0_5_6                   1                       0
    100 y_0_6_1                   1                       0
    104 y_0_6_5                   1                       0
    107 y_0_7_1                   1                       0
    109 y_0_7_3                   1                       0
    110 y_0_7_4                   1                       0
    111 y_0_7_5                   1                       0
    112 y_0_7_6                   1                       0
    114 y_0_8_1                   1                       0
    117 y_0_8_4                   1                       0
    118 y_0_8_5                   1                       0
    123 y_1_2_3                   1                       0
    124 y_1_2_4                   1                       0
    126 y_1_2_6                   1                       0
    127 y_1_3_0                   1                       0
    128 y_1_3_1                   1                     725
    130 y_1_3_3                   1                       0
    131 y_1_3_4                   1                       0
    132 y_1_3_5                   1                       0
    134 y_1_4_0                   1                       0
    135 y_1_4_1                   1                       0
    136 y_1_4_2                   1                       0
    137 y_1_4_3                   1                       0
    138 y_1_4_4                   1                       0
    139 y_1_4_5                   1                       0
    140 y_1_4_6                   1                       0
    143 y_1_5_2                   1                       0
    145 y_1_5_4                   1                       0
    146 y_1_5_5                   1                       0
    147 y_1_5_6                   1                       0
    148 y_1_6_0                   1                       0
    149 y_1_6_1                   1                       0
    150 y_1_6_2                   1                       0
    151 y_1_6_3                   1                       0
    153 y_1_6_5                   1                       0
    154 y_1_6_6                   1                     725
    155 y_1_7_0                   1                       0
    156 y_1_7_1                   1                       0
    157 y_1_7_2                   1                       0
    158 y_1_7_3                   1                       0
    159 y_1_7_4                   1                       0
    160 y_1_7_5                   1                       0
    161 y_1_7_6                   1                       0
    162 y_1_8_0                   1                       0
    165 y_1_8_3                   1                       0
    166 y_1_8_4                   1                       0
    167 y_1_8_5                   1                       0
    168 y_1_8_6                   1                       0
    169 y_2_3_0                   1                       0
    170 y_2_3_1                   1                       0
    171 y_2_3_2                   1                       0
    172 y_2_3_3                   1                       0
    174 y_2_3_5                   1                       0
    176 y_2_4_0                   1                       0
    177 y_2_4_1                   1                       0
    178 y_2_4_2                   1                       0
    180 y_2_4_4                   1                       0
    181 y_2_4_5                   1                       0
    182 y_2_4_6                   1                       0
    185 y_2_5_2                   1                       0
    188 y_2_5_5                   1                       0
    190 y_2_6_0                   1                       0
    191 y_2_6_1                   1                       0
    192 y_2_6_2                   1                       0
    195 y_2_6_5                   1                       0
    197 y_2_7_0                   1                       0
    198 y_2_7_1                   1                       0
    199 y_2_7_2                   1                       0
    202 y_2_7_5                   1                       0
    204 y_2_8_0                   1                       0
    205 y_2_8_1                   1                       0
    206 y_2_8_2                   1                       0
    209 y_2_8_5                   1                       0
    212 y_3_4_1                   1                       0
    213 y_3_4_2                   1                       0
    215 y_3_4_4                   1                       0
    216 y_3_4_5                   1                       0
    217 y_3_4_6                   1                       0
    220 y_3_5_2                   1                       0
    224 y_3_5_6                   1                       0
    226 y_3_6_1                   1                       0
    227 y_3_6_2                   1                       0
    231 y_3_6_6                   1                       0
    233 y_3_7_1                   1                       0
    234 y_3_7_2                   1                       0
    236 y_3_7_4                   1                       0
    238 y_3_7_6                   1                       0
    245 y_3_8_6                   1                       0
    253 y_4_6_0                   1                       0
    254 y_4_6_1                   1                       0
    256 y_4_6_3                   1                       0
    261 y_4_7_1                   1                       0
    263 y_4_7_3                   1                       0
    270 y_4_8_3                   1                       0
    274 y_5_6_0                   1                       0
    275 y_5_6_1                   1                       0
    276 y_5_6_2                   1                       0
    277 y_5_6_3                   1                       0
    279 y_5_6_5                   1                       0
    281 y_5_7_0                   1                       0
    282 y_5_7_1                   1                       0
    283 y_5_7_2                   1                       0
    284 y_5_7_3                   1                       0
    285 y_5_7_4                   1                       0
    287 y_5_7_6                   1                       0
    288 y_5_8_0                   1                       0
    289 y_5_8_1                   1                       0
    291 y_5_8_3                   1                       0
    292 y_5_8_4                   1                       0
    297 y_6_7_2                   1                       0
    298 y_6_7_3                   1                       0
    299 y_6_7_4                   1                       0
    301 y_6_7_6                   1                       0
    306 y_6_8_4                   1                       0
    308 y_6_8_6                   1                     725
    309 y_7_8_0                   1                       0
